db/data/1831311439210343255125598184332474111040.z3.out
unsat
-------------------
235.150903564
